unknown
(model
; cardinality of BoundSet is 2
(declare-sort BoundSet 0)
; rep: @uc_BoundSet_0
; rep: @uc_BoundSet_1
; cardinality of UnboundSet is 1
(declare-sort UnboundSet 0)
(declare-fun groundTerm_3 () UnboundSet)
(define-fun IsInGlobalWarming ((BOUND_VARIABLE_444 BoundSet)) Bool true)
(define-fun IsAnImpactOfClimateChange ((BOUND_VARIABLE_444 BoundSet)) Bool true)
(define-fun IsAConfluenceOfRareEvents ((BOUND_VARIABLE_444 BoundSet)) Bool false)
)
sat
(model
; cardinality of BoundSet is 1
(declare-sort BoundSet 0)
; rep: @uc_BoundSet_0
; cardinality of UnboundSet is 1
(declare-sort UnboundSet 0)
(declare-fun groundTerm_7 () UnboundSet)
(define-fun IsInGlobalWarming ((BOUND_VARIABLE_475 BoundSet)) Bool true)
(define-fun IsAnImpactOfClimateChange ((BOUND_VARIABLE_475 BoundSet)) Bool true)
(define-fun IsAConfluenceOfRareEvents ((BOUND_VARIABLE_475 BoundSet)) Bool false)
)
